computational_data/real_data/solutions/wdbc_trial_013_lex.sol
Optimal - objective value 8.52212500
      0 r_0                         0                 0.99115
      1 r_1                         0                 0.99115
      2 r_2                         1                0.982301
      3 r_3                         0                0.973451
      4 r_4                         0                0.973451
      5 r_5                         1                0.964602
      6 r_6                         0                0.964602
      7 r_7                         1                0.946903
      8 r_8                         0                0.946903
      9 r_9                         0                0.938053
     10 r_10                        0                0.938053
     11 r_11                        0                0.929204
     12 r_12                        0                0.929204
     13 r_13                        1                0.929204
     14 r_14                        1                0.920354
     15 r_15                        0                0.920354
     16 b_0                         0                 0.99115
     17 b_1                         1                 0.99115
     18 b_2                         0                0.982301
     19 b_3                         0                0.973451
     20 b_4                         0                0.973451
     21 b_5                         0                0.964602
     22 b_6                         0                0.964602
     23 b_7                         0                0.946903
     24 b_8                         0                0.946903
     25 b_9                         1                0.938053
     26 b_10                        0                0.938053
     27 b_11                        0                0.929204
     28 b_12                        1                0.929204
     29 b_13                        0                0.929204
     30 b_14                        0                0.920354
     31 b_15                        1                0.920354
